NAME : XML100_1345_09
DIMENSION : 101
NB_CLUSTERS : 4
CLUSTERING_ALG : KMedoids
CLUSTERING_PARAMS : k(3)
CLUSTERS
1 0
2 4 11 12 23 25 29 35 47 50 51 55 57 62 72 82 86 87 89 100
3 5 6 7 10 13 14 17 20 21 22 28 31 33 40 42 44 45 46 48 54 60 65 66 67 69 71 76 77 78 79 80 81 83 85 88 92 93 99
4 1 2 3 8 9 15 16 18 19 24 26 27 30 32 34 36 37 38 39 41 43 49 52 53 56 58 59 61 63 64 68 70 73 74 75 84 90 91 94 95 96 97 98
EOF